c User generated cnf file
p cnf 7 30
1 7 -6 0 
6 -5 7 0 
3 -2 6 0 
6 1 -3 0 
1 -1 2 0 
4 5 -4 0 
5 4 -5 0 
3 -5 4 0 
7 -6 3 0 
4 -7 1 0 
7 -2 1 0 
1 -6 3 0 
3 3 -5 0 
2 -6 6 0 
4 -4 3 0 
7 -3 6 0 
5 6 -6 0 
1 -4 5 0 
5 4 -5 0 
2 6 -4 0 
2 5 -3 0 
1 6 -4 0 
3 -1 3 0 
3 -4 6 0 
2 -7 3 0 
7 -7 7 0 
5 2 -7 0 
6 1 -7 0 
7 1 -3 0 
4 3 -3 0 
